\ENCODING=ISO-8859-1
\Problem name: IloCplex_conflict

Minimize
 obj1:
Subject To
 c46:   y_0_0  = 0.0553510338068008
 c47:   - 25 y_0_0 + 25 y_0_1  = 0.346244871616364
 c48:   500 y_0_0 - 1000 y_0_1 + 500 y_0_2  = -0.41535496711731
 c142:  y_0_3 >= 0.200000002980232
 c2581: 500 y_0_3 + 500 y_0_1 - 1000 y_0_2 <= 3.85286827444977
\Sum of equality rows in the conflict:
\ sum_eq: 476 y_0_0 - 975 y_0_1 + 500 y_0_2  = -0.0137590616941452
Bounds
      y_0_3 Free
      y_0_0 Free
      y_0_1 Free
      y_0_2 Free
End
